1570 4600 2020 3560
2470 3560 2720 3900
2450 3460 3670 3780
3250 4500 4320 2750
970 4030 1350 3090

530 2990 1250 3040
600 2280 1320 2620
1250 3100 1470 2300
1600 3170 2070 3560
2100 3550 2450 3550

2270 3100 2450 3550
2300 3040 2530 2280
2450 2590 2800 2560
2800 2560 3100 2725
3110 2750 4075 3250

1500 2190 1560 1625
1650 1700 2150 1710
2450 1925 2475 2240
2950 2300 3100 2190
3050 2060 3750 1740

2475 1825 2975 790
1425 560 1575 1475
1500 425 1830 60
1675 275 2100 1560
1925 90 2950 775

3025 825 3825 1650
1225 3160 1550 3110
2570 2290 2875 2310
2225 1775 3050 2150


2000 2710 60
2000 2690 142
2400 2400 233
4050 1050 105